500
    1    85    85
    2    94    94
    3    26    26
    4     6     6
    5    48    48
    6    16    16
    7    21    21
    8    92    92
    9    22    22
   10    49    49
   11    95    95
   12    37    37
   13    43    43
   14    57    57
   15    45    45
   16    15    15
   17    55    55
   18    46    46
   19    52    52
   20    22    22
   21     9     9
   22    91    91
   23     1     1
   24    59    59
   25    22    22
   26    67    67
   27    94    94
   28    98    98
   29    38    38
   30     7     7
   31    74    74
   32    44    44
   33    15    15
   34    34    34
   35    82    82
   36    66    66
   37    67    67
   38    94    94
   39    84    84
   40    93    93
   41    99    99
   42    33    33
   43    33    33
   44    31    31
   45    82    82
   46    28    28
   47    72    72
   48   100   100
   49    74    74
   50    17    17
   51    38    38
   52    74    74
   53    56    56
   54    20    20
   55    45    45
   56    19    19
   57    95    95
   58    94    94
   59    29    29
   60    96    96
   61    99    99
   62    97    97
   63    77    77
   64    16    16
   65    97    97
   66     8     8
   67    19    19
   68    39    39
   69    42    42
   70     7     7
   71     7     7
   72    69    69
   73    22    22
   74    37    37
   75    70    70
   76    31    31
   77    98    98
   78    26    26
   79   100   100
   80    87    87
   81    45    45
   82    72    72
   83    67    67
   84    13    13
   85    72    72
   86    81    81
   87    95    95
   88    43    43
   89    13    13
   90    58    58
   91    48    48
   92     3     3
   93    87    87
   94    64    64
   95    23    23
   96    36    36
   97    29    29
   98    24    24
   99    74    74
  100    89    89
  101    40    40
  102    79    79
  103    54    54
  104    42    42
  105    67    67
  106    39    39
  107    46    46
  108    41    41
  109    10    10
  110    96    96
  111    53    53
  112    94    94
  113    91    91
  114    66    66
  115    24    24
  116    24    24
  117    30    30
  118     8     8
  119    88    88
  120    11    11
  121    90    90
  122   100   100
  123    40    40
  124    14    14
  125    49    49
  126    89    89
  127    96    96
  128     1     1
  129    65    65
  130    66    66
  131    78    78
  132    89    89
  133    70    70
  134    33    33
  135    36    36
  136    25    25
  137    22    22
  138    44    44
  139    51    51
  140    49    49
  141    23    23
  142    13    13
  143    31    31
  144    79    79
  145     8     8
  146    61    61
  147    85    85
  148    65    65
  149    53    53
  150    86    86
  151    42    42
  152    86    86
  153    92    92
  154    86    86
  155    25    25
  156    89    89
  157    86    86
  158    24    24
  159    12    12
  160    91    91
  161    59    59
  162    91    91
  163    63    63
  164    90    90
  165    88    88
  166    81    81
  167    79    79
  168    14    14
  169    87    87
  170    17    17
  171    19    19
  172    72    72
  173    61    61
  174    18    18
  175    46    46
  176    19    19
  177    92    92
  178    56    56
  179    61    61
  180    82    82
  181    14    14
  182     6     6
  183    86    86
  184     1     1
  185    30    30
  186    85    85
  187    49    49
  188    52    52
  189    94    94
  190   100   100
  191    99    99
  192    94    94
  193    91    91
  194    37    37
  195    30    30
  196    24    24
  197    98    98
  198    92    92
  199    90    90
  200    24    24
  201    75    75
  202    60    60
  203    26    26
  204    97    97
  205    72    72
  206    10    10
  207    66    66
  208    49    49
  209    51    51
  210    19    19
  211    48    48
  212    63    63
  213    85    85
  214    58    58
  215    56    56
  216     4     4
  217    64    64
  218    18    18
  219    83    83
  220    28    28
  221   100   100
  222    37    37
  223    21    21
  224    46    46
  225     7     7
  226    53    53
  227    23    23
  228    71    71
  229    11    11
  230    62    62
  231    16    16
  232    97    97
  233     9     9
  234    91    91
  235    95    95
  236    29    29
  237    43    43
  238    26    26
  239    62    62
  240    47    47
  241    85    85
  242    69    69
  243    10    10
  244    70    70
  245    81    81
  246    34    34
  247    84    84
  248    23    23
  249     3     3
  250    95    95
  251    60    60
  252    68    68
  253    49    49
  254    72    72
  255    41    41
  256    58    58
  257    72    72
  258    83    83
  259    77    77
  260     8     8
  261    59    59
  262    70    70
  263     7     7
  264    83    83
  265     8     8
  266    48    48
  267    70    70
  268    30    30
  269    30    30
  270    69    69
  271     8     8
  272     3     3
  273    11    11
  274    20    20
  275   100   100
  276     9     9
  277    39    39
  278    87    87
  279    22    22
  280    25    25
  281    85    85
  282    30    30
  283    70    70
  284     4     4
  285    89    89
  286    41    41
  287    69    69
  288    79    79
  289    43    43
  290    76    76
  291    72    72
  292    62    62
  293    28    28
  294    89    89
  295    61    61
  296    43    43
  297    38    38
  298    16    16
  299    48    48
  300    38    38
  301    47    47
  302    60    60
  303    66    66
  304     6     6
  305    91    91
  306    59    59
  307    38    38
  308    31    31
  309    95    95
  310     4     4
  311    26    26
  312    20    20
  313    96    96
  314    53    53
  315    49    49
  316    25    25
  317    55    55
  318    31    31
  319    43    43
  320    65    65
  321    87    87
  322    38    38
  323    40    40
  324     9     9
  325    64    64
  326    18    18
  327    15    15
  328    33    33
  329    35    35
  330    32    32
  331    64    64
  332    57    57
  333    60    60
  334    91    91
  335    93    93
  336    76    76
  337    63    63
  338    46    46
  339    59    59
  340    77    77
  341    60    60
  342    58    58
  343    11    11
  344    86    86
  345    62    62
  346    34    34
  347    59    59
  348    58    58
  349    60    60
  350    79    79
  351    68    68
  352    40    40
  353    48    48
  354    35    35
  355    15    15
  356    74    74
  357    76    76
  358    26    26
  359    41    41
  360    12    12
  361    89    89
  362    39    39
  363    94    94
  364    21    21
  365     6     6
  366    25    25
  367    90    90
  368    17    17
  369    78    78
  370     1     1
  371    71    71
  372    93    93
  373    32    32
  374    49    49
  375    99    99
  376    52    52
  377    37    37
  378    59    59
  379    87    87
  380    67    67
  381    72    72
  382    56    56
  383    72    72
  384    83    83
  385    98    98
  386    17    17
  387     6     6
  388    16    16
  389    11    11
  390    80    80
  391    35    35
  392    25    25
  393    25    25
  394    80    80
  395    23    23
  396    12    12
  397    64    64
  398    66    66
  399    43    43
  400    16    16
  401    32    32
  402    48    48
  403     2     2
  404    41    41
  405    40    40
  406    64    64
  407    76    76
  408    54    54
  409    12    12
  410    26    26
  411     2     2
  412    72    72
  413    54    54
  414    31    31
  415    11    11
  416    43    43
  417    73    73
  418    50    50
  419     3     3
  420    27    27
  421    50    50
  422    17    17
  423    77    77
  424     5     5
  425    20    20
  426    13    13
  427     2     2
  428    13    13
  429     3     3
  430    91    91
  431    81    81
  432    98    98
  433    10    10
  434    59    59
  435    25    25
  436    45    45
  437    19    19
  438    31    31
  439    68    68
  440    75    75
  441    27    27
  442    33    33
  443    62    62
  444    38    38
  445    91    91
  446    23    23
  447     5     5
  448    16    16
  449    57    57
  450    20    20
  451     5     5
  452    15    15
  453    17    17
  454    60    60
  455    79    79
  456    61    61
  457    85    85
  458    72    72
  459    96    96
  460    88    88
  461     7     7
  462    64    64
  463    24    24
  464    43    43
  465    22    22
  466     6     6
  467    40    40
  468     7     7
  469    75    75
  470    39    39
  471     1     1
  472    52    52
  473    91    91
  474    42    42
  475    27    27
  476    60    60
  477    30    30
  478    57    57
  479    82    82
  480    82    82
  481     3     3
  482    37    37
  483    93    93
  484    93    93
  485    15    15
  486    14    14
  487    33    33
  488    36    36
  489    64    64
  490    87    87
  491    16    16
  492     2     2
  493    63    63
  494    72    72
  495    87    87
  496    63    63
  497     6     6
  498     1     1
  499    34    34
  500    77    77
4201
